Minimize

 obj: z1 + z2 + z3 + z4 + z5 + z6 + z7

Subject To

 c1: + z1 + z2 + z3 + z4 + z5 + z6 + z7 >= 1
 c2:- 52 z1 + 4 z2 + 12 z3 + 12 z4 + 4 z6 >= 0
 c3:+ 6 z1 - 54 z2 + 10 z3 + 10 z4 + 2 z6 + 2 z7 >= 0
 c4:+ 8 z1 - 8 z3 - 8 z4 + 8 z7 >= 0
 c6:- 48 z5 + 16 z6 + 16 z7 >= 0
 c7:+ 5 z1 + 1 z2 + 7 z3 + 7 z4 + 13 z5 - 41 z6 + 15 z7 >= 0
 c8:+ 12 z3 + 12 z4 + 12 z5 + 12 z6 - 36 z7 >= 0

End